min: c;

c = 3.73618697588348 * u4_t1_h1 + 3.91560039508398 * u4_t1_h2 + 2.77995948355383 * u4_t1_h3 + 3.1337335728366 * u4_t1_h4 + 3.1337335728366 * u4_t10_h4 + 3.9832313205786 * u4_t1_h5 + 3.9832313205786 * u4_t10_h5 + 4.33005468535888 * u4_t1_h6 + 4.33005468535888 * u4_t10_h6 + 3.69889330587402 * u4_t1_h7 + 3.69889330587402 * u4_t10_h7 + 5.61715057384098 * u4_t1_h8 + 5.61715057384098 * u4_t9_h8 + 5.61715057384098 * u4_t10_h8 + 5.37183747835867 * u4_t9_h9 + 5.37183747835867 * u4_t10_h9 + 5.6818539225781 * u4_t9_h10 + 5.6818539225781 * u4_t10_h10 + 3.78844489954937 * u4_t2_h11 + 3.78844489954937 * u4_t4_h11 + 3.78844489954937 * u4_t9_h11 + 3.78844489954937 * u4_t10_h11 + 6.4957334669762 * u4_t2_h12 + 6.4957334669762 * u4_t3_h12 + 6.4957334669762 * u4_t4_h12 + 6.4957334669762 * u4_t8_h12 + 6.4957334669762 * u4_t9_h12 + 6.4957334669762 * u4_t10_h12 + 4.60248655012934 * u4_t2_h13 + 4.60248655012934 * u4_t3_h13 + 4.60248655012934 * u4_t4_h13 + 4.60248655012934 * u4_t8_h13 + 4.60248655012934 * u4_t9_h13 + 5.77641880552929 * u4_t2_h14 + 5.77641880552929 * u4_t3_h14 + 5.77641880552929 * u4_t4_h14 + 5.77641880552929 * u4_t8_h14 + 5.77641880552929 * u4_t9_h14 + 6.25928846041428 * u4_t2_h15 + 6.25928846041428 * u4_t3_h15 + 6.25928846041428 * u4_t4_h15 + 6.25928846041428 * u4_t8_h15 + 6.25928846041428 * u4_t9_h15 + 5.9116246685878 * u4_t2_h16 + 5.9116246685878 * u4_t3_h16 + 5.9116246685878 * u4_t4_h16 + 5.9116246685878 * u4_t5_h16 + 5.9116246685878 * u4_t8_h16 + 5.9116246685878 * u4_t9_h16 + 6.07955715418735 * u4_t2_h17 + 6.07955715418735 * u4_t3_h17 + 6.07955715418735 * u4_t5_h17 + 6.07955715418735 * u4_t8_h17 + 6.07955715418735 * u4_t9_h17 + 6.00095784297819 * u4_t2_h18 + 6.00095784297819 * u4_t3_h18 + 6.00095784297819 * u4_t5_h18 + 6.00095784297819 * u4_t8_h18 + 6.00095784297819 * u4_t9_h18 + 5.33718743448045 * u4_t2_h19 + 5.33718743448045 * u4_t3_h19 + 5.33718743448045 * u4_t6_h19 + 5.33718743448045 * u4_t8_h19 + 5.33718743448045 * u4_t9_h19 + 5.08914263657113 * u4_t2_h20 + 5.08914263657113 * u4_t6_h20 + 5.08914263657113 * u4_t9_h20 + 5.21132875282879 * u4_t6_h21 + 6.04420749805668 * u4_t6_h22 + 6.04420749805668 * u4_t7_h22 + 5.82288959604281 * u4_t6_h23 + 5.82288959604281 * u4_t7_h23;
0 <= u4_t1_h1 <= 1;
0 <= u4_t1_h2 <= 1;
0 <= u4_t1_h3 <= 1;
0 <= u4_t1_h4 <= 1;
0 <= u4_t1_h5 <= 1;
0 <= u4_t1_h6 <= 1;
0 <= u4_t1_h7 <= 1;
0 <= u4_t1_h8 <= 1;
u4_t1_h1 + u4_t1_h2 + u4_t1_h3 + u4_t1_h4 + u4_t1_h5 + u4_t1_h6 + u4_t1_h7 + u4_t1_h8 = 1;
0 <= u4_t2_h11 <= 1;
0 <= u4_t2_h12 <= 1;
0 <= u4_t2_h13 <= 1;
0 <= u4_t2_h14 <= 1;
0 <= u4_t2_h15 <= 1;
0 <= u4_t2_h16 <= 1;
0 <= u4_t2_h17 <= 1;
0 <= u4_t2_h18 <= 1;
0 <= u4_t2_h19 <= 1;
0 <= u4_t2_h20 <= 1;
u4_t2_h11 + u4_t2_h12 + u4_t2_h13 + u4_t2_h14 + u4_t2_h15 + u4_t2_h16 + u4_t2_h17 + u4_t2_h18 + u4_t2_h19 + u4_t2_h20 = 2;
0 <= u4_t3_h12 <= 1;
0 <= u4_t3_h13 <= 1;
0 <= u4_t3_h14 <= 1;
0 <= u4_t3_h15 <= 1;
0 <= u4_t3_h16 <= 1;
0 <= u4_t3_h17 <= 1;
0 <= u4_t3_h18 <= 1;
0 <= u4_t3_h19 <= 1;
u4_t3_h12 + u4_t3_h13 + u4_t3_h14 + u4_t3_h15 + u4_t3_h16 + u4_t3_h17 + u4_t3_h18 + u4_t3_h19 = 3;
0 <= u4_t4_h11 <= 1;
0 <= u4_t4_h12 <= 1;
0 <= u4_t4_h13 <= 1;
0 <= u4_t4_h14 <= 1;
0 <= u4_t4_h15 <= 1;
0 <= u4_t4_h16 <= 1;
u4_t4_h11 + u4_t4_h12 + u4_t4_h13 + u4_t4_h14 + u4_t4_h15 + u4_t4_h16 = 3;
0 <= u4_t5_h16 <= 1;
0 <= u4_t5_h17 <= 1;
0 <= u4_t5_h18 <= 1;
u4_t5_h16 + u4_t5_h17 + u4_t5_h18 = 1;
0 <= u4_t6_h19 <= 1;
0 <= u4_t6_h20 <= 1;
0 <= u4_t6_h21 <= 1;
0 <= u4_t6_h22 <= 1;
0 <= u4_t6_h23 <= 1;
u4_t6_h19 + u4_t6_h20 + u4_t6_h21 + u4_t6_h22 + u4_t6_h23 = 3;
0 <= u4_t7_h22 <= 1;
0 <= u4_t7_h23 <= 1;
u4_t7_h22 + u4_t7_h23 = 1;
0 <= u4_t8_h12 <= 1;
0 <= u4_t8_h13 <= 1;
0 <= u4_t8_h14 <= 1;
0 <= u4_t8_h15 <= 1;
0 <= u4_t8_h16 <= 1;
0 <= u4_t8_h17 <= 1;
0 <= u4_t8_h18 <= 1;
0 <= u4_t8_h19 <= 1;
u4_t8_h12 + u4_t8_h13 + u4_t8_h14 + u4_t8_h15 + u4_t8_h16 + u4_t8_h17 + u4_t8_h18 + u4_t8_h19 = 2;
0 <= u4_t9_h8 <= 1;
0 <= u4_t9_h9 <= 1;
0 <= u4_t9_h10 <= 1;
0 <= u4_t9_h11 <= 1;
0 <= u4_t9_h12 <= 1;
0 <= u4_t9_h13 <= 1;
0 <= u4_t9_h14 <= 1;
0 <= u4_t9_h15 <= 1;
0 <= u4_t9_h16 <= 1;
0 <= u4_t9_h17 <= 1;
0 <= u4_t9_h18 <= 1;
0 <= u4_t9_h19 <= 1;
0 <= u4_t9_h20 <= 1;
u4_t9_h8 + u4_t9_h9 + u4_t9_h10 + u4_t9_h11 + u4_t9_h12 + u4_t9_h13 + u4_t9_h14 + u4_t9_h15 + u4_t9_h16 + u4_t9_h17 + u4_t9_h18 + u4_t9_h19 + u4_t9_h20 = 2;
0 <= u4_t10_h4 <= 1;
0 <= u4_t10_h5 <= 1;
0 <= u4_t10_h6 <= 1;
0 <= u4_t10_h7 <= 1;
0 <= u4_t10_h8 <= 1;
0 <= u4_t10_h9 <= 1;
0 <= u4_t10_h10 <= 1;
0 <= u4_t10_h11 <= 1;
0 <= u4_t10_h12 <= 1;
u4_t10_h4 + u4_t10_h5 + u4_t10_h6 + u4_t10_h7 + u4_t10_h8 + u4_t10_h9 + u4_t10_h10 + u4_t10_h11 + u4_t10_h12 = 2;
